p cnf 990 2532
c ind 982 966 858 978 979 955 960 984 961 958 0
c ind 959 969 980 941 860 970 973 983 987 977 0
c ind 971 988 946 962 862 963 972 981 976 943 0
c ind 968 967 878 942 874 875 895 909 939 896 0
c ind 914 883 911 868 863 867 975 865 910 954 0
c ind 974 985 864 877 986 866 952 956 957 899 0
c ind 902 953 944 915 925 922 924 947 884 923 0
c ind 948 926 938 950 951 945 918 927 964 929 0
c ind 949 965 886 912 889 928 907 903 906 888 0
c ind 913 891 931 932 908 933 936 935 930 869 0
c ind 900 901 937 904 873 934 879 905 921 882 0
c ind 890 872 894 859 871 892 881 893 916 870 0
c ind 920 876 919 940 887 897 880 885 917 898 0
c ind 861 1 0
c ret 586 718 719 720 721 722 723 724 587 725 0
c ret 726 727 728 729 730 731 732 630 733 631 0
c ret 734 735 588 736 737 738 632 739 740 741 0
c ret 742 589 743 744 745 746 747 748 749 750 0
c ret 633 751 634 752 753 754 590 755 756 757 0
c ret 758 759 760 761 762 763 764 591 592 635 0
c ret 593 765 766 767 768 769 770 771 772 636 0
c ret 773 774 775 776 777 594 637 778 779 780 0
c ret 638 781 782 783 595 784 785 786 787 788 0
c ret 578 596 789 790 791 792 597 793 794 795 0
c ret 796 639 640 797 798 598 641 799 800 801 0
c ret 802 803 804 805 599 806 807 808 600 809 0
c ret 810 811 812 813 642 814 815 816 817 818 0
c ret 819 820 821 601 822 823 824 825 643 826 0
c ret 827 828 829 830 831 832 833 834 644 602 0
c ret 835 836 837 838 839 840 841 842 603 843 0
c ret 844 645 845 646 846 847 848 849 850 851 0
c ret 852 853 579 604 854 855 856 857 605 647 0
c ret 648 649 650 606 651 652 653 654 607 608 0
c ret 655 656 609 657 658 659 610 660 661 580 0
c ret 611 662 663 664 665 666 667 668 669 612 0
c ret 670 613 614 615 671 616 581 672 673 617 0
c ret 618 674 619 675 620 621 676 677 678 622 0
c ret 582 623 679 680 681 682 683 684 685 686 0
c ret 687 583 688 689 690 691 692 693 694 695 0
c ret 696 697 698 699 584 624 700 625 701 702 0
c ret 703 626 627 704 705 706 707 585 708 709 0
c ret 710 711 712 628 713 629 714 715 716 717 0
2 -62 -201 0
2 -3 -189 -201 0
-2 201 0
-2 62 189 0
-2 3 62 0
3 -4 -60 61 739 0
-3 -739 0
-3 -61 0
-3 60 0
-3 4 0
4 -5 -7 0
4 -7 -740 0
-4 7 0
-4 5 740 0
5 -6 590 592 0
-5 6 0
-5 -592 0
-5 -590 0
6 594 609 0
-6 -594 0
-6 -609 0
7 8 30 -39 0
-7 39 0
-7 -30 0
-7 -8 0
8 9 11 0
-8 -9 0
-8 -11 0
9 -10 590 592 0
-9 10 0
-9 -592 0
-9 -590 0
10 594 613 0
-10 -594 0
-10 -613 0
11 -25 -590 0
11 12 590 0
-11 -12 590 0
-11 25 -590 0
12 -23 -592 0
12 13 592 0
-12 -13 592 0
-12 23 -592 0
13 -16 -594 0
13 14 594 0
-13 -14 594 0
-13 16 -594 0
14 -612 -633 0
14 -15 -633 0
-14 633 0
-14 15 612 0
15 -605 -606 -634 0
-15 605 0
-15 606 0
-15 634 0
14 16 17 0
16 -17 662 0
-14 -16 17 0
-16 -17 -662 0
17 18 613 0
-17 -613 0
-17 -18 0
18 19 -663 0
-18 663 0
-18 -19 0
19 20 666 0
19 20 667 0
-19 -20 0
-19 -666 -667 0
20 21 -22 613 663 0
-20 22 0
-20 -21 0
-20 -613 0
-20 -663 0
21 614 623 -670 0
-21 670 0
-21 -623 0
-21 -614 0
22 -664 666 667 0
-22 664 0
-22 -667 0
-22 -666 0
23 -24 -687 0
13 23 24 0
-13 -23 24 0
-23 -24 687 0
-10 18 24 0
10 -24 0
-18 -24 0
12 25 26 0
25 -26 713 0
-12 -25 26 0
-25 -26 -713 0
26 -27 -29 0
26 -27 -28 663 0
-26 27 0
-26 29 -663 0
-26 28 29 0
-10 27 592 0
-27 -592 0
10 -27 0
28 592 594 0
-28 -592 0
-28 -594 0
-19 29 663 0
-19 29 613 0
19 -29 0
-29 -613 -663 0
30 -31 -32 0
30 -32 33 -604 0
-30 32 0
-30 31 -33 0
-30 31 604 0
31 -639 640 -641 0
-31 639 0
-31 -640 0
-31 641 0
32 590 592 594 0
-32 -590 0
-32 -594 0
-32 -592 0
33 -590 -718 0
33 34 590 0
-33 -590 718 0
-33 -34 590 0
34 -592 695 0
34 -35 592 0
-34 -592 -695 0
-34 35 592 0
35 -594 671 0
35 -36 594 0
-35 -594 -671 0
-35 36 594 0
36 37 602 0
36 37 624 625 0
-36 -37 0
-36 -602 -625 0
-36 -602 -624 0
37 38 603 -624 -625 0
-37 -603 0
-37 -38 0
-37 625 0
-37 624 0
38 -626 -627 0
-38 626 0
-38 627 0
39 -40 56 0
39 54 56 0
-39 -56 0
-39 40 -54 0
40 -41 -48 0
40 -48 721 0
-40 48 0
-40 41 -721 0
41 -590 721 0
41 -42 590 0
-41 -590 -721 0
-41 42 590 0
42 -592 698 0
42 -43 592 0
-42 -592 -698 0
-42 43 592 0
43 44 594 0
43 44 673 0
-43 -44 0
-43 -594 -673 0
44 45 594 0
-44 -594 0
-44 -45 0
45 -47 620 0
45 -47 -631 0
45 46 -47 0
-45 47 0
-45 -46 -620 631 0
46 650 652 653 -654 0
-46 654 0
-46 -653 0
-46 -650 0
-46 -652 0
47 652 653 0
47 631 650 0
47 650 653 0
47 631 652 0
-47 -650 -652 0
-47 -631 -653 0
48 -53 728 0
48 -49 590 728 0
-48 -728 0
-48 53 -590 0
-48 49 53 0
49 -50 592 0
49 -52 -592 0
-49 52 -592 0
-49 50 592 0
50 -51 594 0
-50 -594 0
-50 51 0
51 -631 650 0
51 631 649 0
-51 631 -649 0
-51 -631 -650 0
52 673 697 0
-52 -673 0
-52 -697 0
53 698 720 0
-53 -698 0
-53 -720 0
54 -55 729 0
54 721 729 0
-54 -729 0
-54 55 -721 0
-49 55 590 0
-53 55 -590 0
53 -55 -590 0
49 -55 590 0
56 58 730 0
56 57 59 730 0
-56 -730 0
-56 -57 -58 0
-56 -58 -59 0
57 630 631 0
57 618 -631 0
-57 -630 631 0
-57 -618 -631 0
-57 58 -721 0
58 721 732 0
-58 721 -732 0
57 -58 -721 0
-53 59 731 0
-59 -731 0
53 -59 0
-5 -7 60 0
-7 60 -733 0
7 -60 0
5 -60 733 0
61 -733 740 0
-61 733 0
-61 -740 0
62 -177 584 0
62 63 584 761 0
-62 -584 0
-62 177 -761 0
-62 -63 177 0
63 140 -762 0
63 64 107 140 0
-63 -140 0
-63 -64 762 0
-63 -107 762 0
64 -106 763 764 0
64 -65 763 -764 0
-64 -763 0
-64 65 -764 0
-64 106 764 0
65 -66 -593 675 679 0
65 -66 593 -675 679 0
-65 66 0
-65 593 675 0
-65 -679 0
-65 -593 -675 0
66 -67 75 -76 -97 0
-66 97 0
-66 67 0
-66 76 0
-66 -75 0
67 68 -73 -594 0
67 68 -69 -73 0
-67 73 0
-67 -68 0
-67 69 594 0
10 13 68 0
-10 -68 0
-13 -68 0
69 -70 -72 0
69 -70 71 0
-69 70 0
-69 -71 72 0
31 36 70 0
31 70 604 0
-31 -70 0
-36 -70 -604 0
-51 71 655 0
-71 -655 0
51 -71 0
-45 72 648 0
-72 -648 0
45 -72 0
73 74 -676 0
-6 73 74 0
-73 -74 0
6 -73 676 0
57 74 656 0
-74 -656 0
-57 -74 0
16 75 -594 0
75 -594 -609 659 0
-75 594 0
-16 -75 609 0
-16 -75 -659 0
-70 76 -77 89 -90 0
-76 90 0
70 -76 0
-76 77 0
-76 -89 0
77 -78 87 609 0
77 -78 -85 87 0
-77 78 0
-77 -87 0
-77 85 -609 0
78 -80 -82 -612 0
78 79 -80 -82 0
-78 82 0
-78 80 0
-78 -79 612 0
79 605 -613 0
-79 -605 0
-79 613 0
80 81 603 0
80 81 -602 0
80 81 604 0
-80 -81 0
-80 602 -603 -604 0
81 605 614 0
81 -605 606 0
-81 -605 -606 0
-81 605 -614 0
82 -83 84 -616 0
79 82 -83 84 0
-82 83 0
-82 -84 0
-79 -82 616 0
83 -595 -622 -642 643 0
-83 642 0
-83 -643 0
-83 595 0
-83 622 0
84 -609 644 0
84 -635 644 0
-84 -644 0
-84 609 635 0
85 86 -608 -628 0
85 86 607 -628 0
-85 628 0
-85 -86 0
-85 -607 608 0
86 610 -611 0
86 610 629 0
-86 -610 0
-86 611 -629 0
87 -88 -597 0
87 -597 599 -601 0
-87 597 0
-87 88 -599 0
-87 88 601 0
88 -596 598 -599 600 0
-88 599 0
-88 -600 0
-88 596 0
-88 -598 0
-14 89 -613 0
-89 613 0
14 -89 0
90 91 92 -93 -94 0
-90 -91 0
-90 94 0
-90 93 0
-90 -92 0
91 614 623 0
-91 -614 0
-91 -623 0
57 92 617 -632 0
-92 -617 0
-92 632 0
-57 -92 0
93 609 621 0
93 -620 -635 0
93 609 -620 0
93 621 -635 0
-93 -609 635 0
-93 620 -621 0
94 95 96 0
94 95 605 0
94 95 612 0
-94 -95 0
-94 -96 -605 -612 0
95 617 -622 0
95 617 -618 -619 0
-95 -617 0
-95 618 622 0
-95 619 622 0
96 -613 -614 615 0
-96 613 0
-96 614 0
-96 -615 0
97 -98 -102 620 0
97 -98 101 -102 0
-97 102 0
-97 98 0
-97 -101 -620 0
-69 98 -656 0
-69 98 -99 622 0
69 -98 0
-98 -622 656 0
-98 99 656 0
99 -100 657 0
-99 -657 0
-99 100 0
100 651 652 0
100 -631 652 0
100 619 631 -652 0
-100 -619 -652 0
-100 -631 -652 0
-100 631 -651 652 0
-51 -72 101 0
-72 -100 101 0
72 -101 0
51 100 -101 0
71 89 102 -103 0
89 102 -103 620 0
-102 103 0
-89 -102 0
-71 -102 -620 0
57 103 104 -105 -656 0
-103 105 0
-103 -104 0
-103 656 0
-57 -103 0
104 -609 659 0
104 -659 676 0
104 -594 676 0
-104 609 -676 0
-104 -659 -676 0
-104 594 609 659 0
105 -647 -674 675 0
-105 647 0
-105 674 0
-105 -675 0
-76 106 647 0
-106 -647 0
76 -106 0
107 -108 704 -763 0
-107 108 0
-107 763 0
-107 -704 0
-66 108 -109 119 -133 0
-108 133 0
66 -108 0
-108 109 0
-108 -119 0
109 110 111 112 -116 0
-109 116 0
-109 -112 0
-109 -110 0
-109 -111 0
-12 27 110 0
-27 -110 0
12 -110 0
-28 -31 111 0
-28 -34 111 -604 0
28 -111 0
31 34 -111 0
31 -111 604 0
112 -113 -114 0
-112 113 0
-112 114 0
-50 113 681 0
113 673 681 0
-113 -681 0
50 -113 -673 0
114 115 592 0
-114 -592 0
-114 -115 0
44 -50 115 680 0
-50 115 673 680 0
50 -115 0
-115 -680 0
-44 -115 -673 0
116 -117 -701 0
116 -117 -118 0
-116 117 0
-116 118 701 0
117 -682 0
-57 117 -673 0
-57 117 683 0
57 -117 682 0
-117 673 682 -683 0
-6 118 592 0
-118 -592 0
6 -118 0
-23 119 -120 0
119 126 -592 0
-23 119 -592 0
119 -120 126 0
23 -119 -126 0
-119 120 592 0
120 121 125 0
-13 120 121 -124 0
-120 -121 0
13 -120 -125 0
-120 124 -125 0
121 594 688 694 0
121 122 -594 688 -694 0
-121 -594 694 0
-121 -122 -694 0
-121 -688 0
-121 594 -694 0
122 -123 -594 -691 0
122 -123 594 -692 0
-122 123 0
-122 -594 691 0
-122 594 692 0
123 641 -689 0
123 -689 -690 0
-123 689 0
-123 -641 690 0
-35 -115 124 693 0
-35 124 682 693 0
35 -124 0
-124 -693 0
115 -124 -682 0
-122 125 -594 -688 0
-125 594 0
-125 688 0
122 -125 0
-117 126 -127 -130 -132 0
-126 132 0
117 -126 0
-126 130 0
-126 127 0
-115 127 128 0
113 127 128 0
-127 -128 0
-113 115 -127 0
128 129 682 0
-128 -682 0
-128 -129 0
-57 129 -673 0
129 673 683 0
-129 673 -683 0
57 -129 -673 0
130 131 -594 0
-70 130 131 0
-130 -131 0
70 -130 594 0
6 131 684 0
-131 -684 0
-6 -131 0
31 131 132 -592 594 0
-131 -132 0
-31 -132 0
-132 592 0
-132 -594 0
-67 111 -127 133 -134 0
-133 134 0
67 -133 0
127 -133 0
-111 -133 0
-71 -130 134 -135 0
115 -130 134 -135 0
-134 135 0
130 -134 0
71 -115 -134 0
129 131 135 -136 -138 0
-129 -135 0
-135 138 0
-135 136 0
-131 -135 0
136 -137 -701 0
136 -137 592 684 0
-136 137 0
-136 -684 701 0
-136 -592 701 0
137 593 -675 0
137 -593 675 0
-137 -593 -675 0
-137 593 675 0
-57 138 -139 0
138 -139 -682 0
-138 139 0
57 -138 682 0
139 -591 -679 -699 700 0
-139 699 0
-139 -700 0
-139 591 0
-139 679 0
140 -141 -166 727 -762 0
-140 -727 0
-140 166 0
-140 141 0
-140 762 0
8 -108 141 142 -163 0
-141 163 0
-8 -141 0
108 -141 0
-141 -142 0
25 142 -143 0
142 152 -590 0
25 142 -590 0
142 -143 152 0
-142 143 590 0
-25 -142 -152 0
143 144 151 0
12 143 144 -148 0
-143 -144 0
-12 -143 -151 0
-143 148 -151 0
-28 144 714 717 0
28 144 145 714 -717 0
-28 -144 -717 0
28 -144 -145 0
-144 -714 0
28 -144 717 0
-123 145 -146 0
123 -145 0
-145 146 0
146 -592 -715 0
146 -147 592 0
-146 147 592 0
-146 -592 715 0
147 -594 -691 0
147 594 -692 0
-147 594 692 0
-147 -594 691 0
-34 148 -149 716 0
-34 148 707 716 0
34 -148 0
-148 -716 0
-148 149 -707 0
149 150 698 705 0
-42 149 150 705 0
-149 -150 0
-149 -705 0
42 -149 -698 0
49 52 150 0
-52 -150 0
-49 -150 0
28 -145 151 -714 0
-151 714 0
-28 -151 0
145 -151 0
152 -153 -159 -160 -162 0
-152 162 0
-152 153 0
-152 160 0
-152 159 0
153 -154 158 0
-153 154 0
-153 -158 0
154 155 157 0
-149 154 155 0
-154 -155 0
149 -154 -157 0
155 156 707 0
-155 -707 0
-155 -156 0
-57 156 -698 0
156 698 709 0
-156 698 -709 0
57 -156 -698 0
-49 157 706 0
157 698 706 0
-157 -706 0
49 -157 -698 0
118 158 710 0
-158 -710 0
-118 -158 0
111 158 159 0
-111 -159 0
-158 -159 0
160 -707 0
-57 -156 160 0
-156 160 -161 0
156 -160 707 0
57 -160 161 707 0
-52 161 708 0
-161 -708 0
52 -161 0
-28 31 162 -590 0
-162 590 0
-31 -162 0
28 -162 0
30 163 -164 -724 0
-5 30 163 -164 0
-163 164 0
-30 -163 0
5 -163 724 0
-149 -160 164 0
-160 164 165 0
160 -164 0
149 -164 -165 0
-157 165 590 0
-165 -590 0
157 -165 0
8 -109 110 166 -167 0
109 -166 0
-8 -166 0
-110 -166 0
-166 167 0
30 -153 167 -168 -176 0
-167 176 0
153 -167 0
-167 168 0
-30 -167 0
149 -164 168 -170 0
-164 168 -169 -170 0
-168 170 0
164 -168 0
-149 -168 169 0
-113 169 592 0
-169 -592 0
113 -169 0
170 -171 -174 -707 0
-129 170 -171 -174 0
-170 174 0
-170 171 0
129 -170 707 0
156 171 -173 -724 0
156 171 -172 -173 0
-171 173 0
-156 -171 0
-171 172 724 0
172 590 710 0
-172 -590 0
-172 -710 0
173 -589 -704 -722 723 0
-173 722 0
-173 -723 0
-173 589 0
-173 704 0
174 175 -590 0
158 174 175 0
-174 -175 0
-158 -174 590 0
57 161 175 707 0
-175 -707 0
-161 -175 0
-57 -175 0
-154 -159 176 0
154 -176 0
159 -176 0
-3 177 -178 743 -761 0
-177 -743 0
-177 178 0
3 -177 0
-177 761 0
-60 178 179 -180 0
-60 178 -180 -187 0
60 -178 0
-178 180 0
-178 -179 187 0
-123 -146 179 590 0
-123 179 -590 -736 0
123 -179 0
-179 -590 736 0
146 -179 590 0
-39 -141 -166 180 -181 0
-180 181 0
141 -180 0
39 -180 0
166 -180 0
40 181 182 -183 0
-165 181 182 -183 0
-181 183 0
-181 -182 0
-40 165 -181 0
179 182 -588 0
-182 588 0
-179 -182 0
58 183 -184 -730 0
58 -156 183 -184 0
-183 184 0
-58 -183 0
156 -183 730 0
184 185 -186 -587 739 0
184 185 -186 587 -739 0
-184 186 0
-184 587 739 0
-184 -185 0
-184 -587 -739 0
-28 185 590 0
-185 -590 0
28 -185 0
186 -727 -733 -738 0
-186 727 0
-186 733 0
-186 738 0
187 188 -588 0
11 187 -588 0
-187 588 0
-11 -187 -188 0
33 -40 188 737 0
33 188 730 737 0
-33 -188 0
-188 -737 0
40 -188 -730 0
-4 -178 189 190 -194 0
-189 194 0
4 -189 0
178 -189 0
-189 -190 0
-179 190 586 0
-11 -179 190 -191 0
179 -190 0
-190 191 -586 0
11 -190 -586 0
33 191 -192 754 0
33 191 748 754 0
-33 -191 0
-191 -754 0
-191 192 -748 0
192 193 744 746 0
-41 192 193 744 0
-192 -744 0
-192 -193 0
41 -192 -746 0
55 193 -721 0
55 193 -745 0
-55 -193 0
-193 721 745 0
192 194 -195 200 0
-54 -192 194 -195 0
-194 195 0
54 -192 -194 0
192 -194 -200 0
30 195 -196 586 0
30 -179 195 -196 0
-195 196 0
-30 -195 0
179 -195 -586 0
32 196 -197 -198 -199 0
-32 -196 0
-196 199 0
-196 198 0
-196 197 0
197 -584 746 -750 0
57 197 -584 -746 0
-197 584 0
-57 -197 -746 0
-197 746 750 0
198 -755 756 -757 760 0
-198 757 0
-198 -760 0
-198 755 0
-198 -756 0
199 -585 -743 -748 -751 0
-199 751 0
-199 585 0
-199 748 0
-199 743 0
-55 200 747 0
200 746 747 0
-200 -747 0
55 -200 -746 0
201 231 -273 -774 0
201 -202 231 -273 0
-201 273 0
-201 -231 0
-201 202 774 0
202 203 -775 0
202 212 230 -775 0
-202 775 0
-202 -203 -212 0
-202 -203 -230 0
203 -581 -783 0
203 -204 581 0
-203 204 581 0
-203 -581 783 0
204 205 -783 0
204 205 583 0
-204 -205 0
-204 -583 783 0
205 -206 583 0
-205 -583 0
-205 206 0
206 -207 -208 0
-9 206 207 0
206 -207 -211 0
9 -206 207 0
-206 -207 208 211 0
207 584 761 762 0
-207 -584 0
-207 -762 0
-207 -761 0
208 -209 613 0
-208 -613 0
-208 209 0
209 210 763 0
-209 -763 0
-209 -210 0
210 -594 -764 0
-210 594 0
-210 764 0
-27 211 -763 0
-211 763 0
27 -211 0
212 -213 581 0
212 -225 -581 0
-212 225 -581 0
-212 213 581 0
213 -214 -583 0
213 583 778 0
-213 583 -778 0
-213 214 -583 0
214 215 778 0
214 -215 781 0
-214 -215 -781 0
-214 215 -778 0
215 -216 -221 0
215 -221 782 0
-215 221 0
-215 216 -782 0
207 216 -217 0
-207 216 -219 0
-207 216 -218 0
207 -216 217 0
-207 -216 218 219 0
28 -29 217 0
-28 217 590 663 0
-29 217 -590 0
28 29 -217 0
29 -217 -590 0
-28 -217 590 -663 0
210 218 663 763 0
-29 -210 218 763 0
-218 -763 0
210 -218 -663 0
29 -210 -218 0
219 -220 -763 0
-219 763 0
-219 220 0
-28 220 663 0
28 -29 220 0
-28 -220 -663 0
28 29 -220 0
221 780 783 0
-206 221 222 0
221 222 783 0
-206 221 780 0
-221 -222 -780 0
206 -221 -783 0
222 223 -665 0
-222 665 0
-222 -223 0
-207 223 -224 0
32 207 223 0
-207 -223 224 0
-32 207 -223 0
-210 224 0
28 224 -763 0
-28 210 -224 0
210 -224 763 0
-213 225 226 0
225 -226 808 0
-225 -226 -808 0
213 -225 226 0
226 -227 -228 0
226 -228 782 0
-226 228 0
-226 227 -782 0
-216 227 583 0
-227 -583 0
216 -227 0
228 780 783 0
-205 228 -229 0
228 -229 783 0
-205 228 780 0
205 -228 -783 0
-228 229 -780 0
229 -583 780 0
-223 229 583 0
229 583 665 0
-229 -583 -780 0
223 -229 583 -665 0
230 581 583 779 0
-230 -581 0
-230 -779 0
-230 -583 0
231 235 -579 0
231 -235 -239 0
231 -232 235 0
231 -235 579 0
-231 -235 239 -579 0
-231 232 235 579 0
232 -233 -833 0
232 233 833 0
-232 -233 833 0
-232 233 -833 0
233 -234 581 0
-233 -581 0
-233 234 0
223 234 583 0
-234 -583 0
-223 -234 0
233 235 -236 -237 0
-235 237 0
-235 236 0
-233 -235 0
236 -690 -769 0
236 -769 772 0
-236 769 0
-236 690 -772 0
237 -581 -831 0
237 -238 581 0
-237 238 581 0
-237 -581 831 0
238 583 -785 0
238 -583 -810 0
-238 -583 810 0
-238 583 785 0
239 -240 -241 0
-212 239 -241 0
-239 241 0
212 -239 240 0
240 773 774 787 0
-240 -773 0
-240 -787 0
-240 -774 0
241 266 825 832 0
241 -242 266 832 0
-241 -266 0
-241 -832 0
-241 242 -825 0
242 252 816 823 0
242 -243 252 823 0
-242 -252 0
-242 -823 0
-242 243 -816 0
243 -247 581 0
243 -581 816 0
243 -244 581 0
-243 -581 -816 0
-243 244 247 581 0
-41 244 245 583 0
-207 244 245 583 0
-244 -583 0
-244 -245 0
41 207 -244 0
42 -207 245 -763 0
-207 245 -246 763 0
207 -245 0
-245 246 763 0
-42 -245 -763 0
-210 246 -673 0
45 210 246 0
-45 210 -246 0
-210 -246 673 0
247 248 -583 0
-247 583 0
-247 -248 0
248 -584 -792 0
248 -251 584 0
248 -249 584 0
-248 -584 792 0
-248 249 251 584 0
249 -721 761 -762 0
249 250 761 762 0
-249 -761 0
-249 -250 762 0
-249 721 -762 0
250 698 -763 0
250 673 763 -764 0
-250 -698 -763 0
-250 -673 763 0
-250 763 764 0
251 -746 -761 0
-251 746 0
-251 761 0
252 253 254 0
-252 -253 0
-252 -254 0
248 253 815 0
-253 -815 0
-248 -253 0
254 -255 581 0
-254 -581 0
-254 255 0
255 259 -583 0
255 -256 259 0
-255 -259 0
-255 256 583 0
-55 256 257 583 0
-207 256 257 583 0
-256 -583 0
-256 -257 0
55 207 -256 0
49 -207 257 258 0
-207 257 258 763 0
207 -257 0
-257 -258 0
-49 -257 -763 0
-51 -209 258 0
51 -258 0
209 -258 0
256 259 -260 0
-259 260 0
-256 -259 0
260 261 -746 0
260 261 -791 0
260 261 584 0
-260 -261 0
-260 -584 746 791 0
261 -263 584 761 0
261 -262 584 -761 0
-261 -584 0
-261 262 -761 0
-261 263 761 0
262 721 745 0
-262 -721 0
-262 -745 0
-53 263 -762 0
263 -265 762 0
263 -264 762 0
53 -263 -762 0
-263 264 265 762 0
-100 264 763 764 0
100 -264 0
-264 -764 0
-264 -763 0
-52 265 -763 0
-265 763 0
52 -265 0
266 267 -813 0
266 267 581 0
-266 -267 0
-266 -581 813 0
267 268 581 0
-267 -581 0
-267 -268 0
268 269 -789 0
268 269 583 0
-268 -269 0
-268 -583 789 0
269 270 583 0
-269 -583 0
-269 -270 0
-207 270 -271 0
-33 207 270 0
-207 -270 271 0
33 207 -270 0
34 271 -763 0
271 -272 763 0
-34 -271 -763 0
-271 272 763 0
-210 272 -671 0
36 210 272 0
-36 210 -272 0
-210 -272 671 0
273 274 299 -350 -416 0
-273 -274 0
-273 416 0
-273 350 0
-273 -299 0
274 275 294 0
274 282 294 0
225 274 294 0
-274 -294 0
-225 -274 -275 -282 0
275 -276 -281 0
275 -276 280 0
-275 276 0
-275 -280 281 0
276 277 -802 0
276 277 278 -279 0
-276 -277 0
-276 279 802 0
-276 -278 802 0
277 775 776 0
-277 -775 0
-277 -776 0
57 278 -803 0
57 -260 278 0
-57 -278 0
260 -278 803 0
-57 -248 279 0
248 279 804 0
248 -279 -804 0
57 -248 -279 0
248 280 801 0
-255 280 801 0
-280 -801 0
-248 255 -280 0
-244 259 281 800 0
248 259 281 800 0
-281 -800 0
-259 -281 0
244 -248 -281 0
-234 282 -283 288 -292 0
-282 292 0
234 -282 0
-282 283 0
-282 -288 0
283 284 285 0
283 284 -583 0
-283 -284 0
-283 -285 583 0
284 773 -774 0
-284 -773 0
-284 774 0
285 286 771 -772 0
285 286 -287 -771 0
-285 -286 0
-285 287 -771 0
-285 771 772 0
223 286 639 0
-286 -639 0
-223 -286 0
287 690 -769 770 0
-287 -690 0
-287 769 0
-287 -770 0
288 289 805 0
-288 -805 0
-288 -289 0
289 290 583 0
-289 -583 0
-289 -290 0
32 207 290 0
-207 290 -291 0
207 290 -609 0
-207 -290 291 0
-32 207 -290 609 0
118 291 -763 0
291 -609 763 0
-210 291 763 0
-118 -291 -763 0
210 -291 609 763 0
292 -293 -581 -774 0
292 -293 -581 783 0
-292 293 0
-292 581 0
-292 774 -783 0
277 293 -773 -774 0
277 293 774 -775 0
-277 -293 0
-293 773 -774 0
-293 774 775 0
294 295 -298 581 0
294 -295 -296 581 0
-294 -581 0
-294 -295 296 0
-294 295 298 0
234 -236 -238 295 0
238 -295 0
236 -295 0
-234 -295 0
296 297 -809 0
213 240 296 -809 0
-296 809 0
-213 -296 -297 0
-240 -296 -297 0
268 -281 297 811 0
268 297 802 811 0
-268 -297 0
-297 -811 0
281 -297 -802 0
234 298 809 -812 0
-234 298 809 812 0
-298 -809 0
-234 -298 -812 0
234 -298 812 0
299 326 -583 0
299 300 302 326 0
-299 -326 0
-299 -300 583 0
-299 -302 583 0
223 300 784 788 0
-223 300 301 784 -788 0
223 -300 -788 0
-223 -300 788 0
-300 -784 0
-300 -301 -788 0
-236 301 -785 0
-301 785 0
236 -301 0
-223 -301 302 303 -784 0
301 -302 0
-302 -303 0
-302 784 0
223 -302 0
270 303 304 -325 0
270 303 -309 -325 0
-270 -303 0
-303 325 0
-303 -304 309 0
304 -584 -748 0
304 -305 584 0
-304 305 584 0
-304 -584 748 0
305 -730 -761 0
305 -306 761 0
-305 730 -761 0
-305 306 761 0
306 -707 -762 0
306 -307 762 0
-306 707 -762 0
-306 307 762 0
307 -682 -763 0
307 -308 763 0
-307 682 -763 0
-307 308 763 0
308 -656 -764 0
308 -617 764 0
-308 617 764 0
-308 656 -764 0
-192 309 -584 0
309 -310 584 0
-309 310 584 0
192 -309 -584 0
-40 310 -761 0
310 -317 761 0
310 -311 761 0
40 -310 -761 0
-310 311 317 761 0
311 316 590 -762 0
311 -312 316 -762 0
-311 762 0
-311 -316 0
-311 312 -590 0
-53 312 313 0
-161 312 313 721 0
-312 -313 0
53 -312 -721 0
53 161 -312 0
313 -314 -719 0
-313 719 0
-313 314 0
-42 314 315 0
314 315 721 0
-314 -315 0
42 -314 -721 0
49 53 315 0
-49 -315 0
-53 -315 0
149 314 316 0
149 316 590 0
-149 -316 0
-314 -316 -590 0
317 -318 762 0
317 322 -324 762 0
-317 -762 0
-317 318 324 0
-317 318 -322 0
318 319 621 763 0
318 319 763 -764 0
-318 -319 0
-318 -763 0
-318 -621 764 0
319 320 -594 -764 0
101 319 320 -764 0
-319 764 0
-319 -320 0
-101 -319 594 0
-51 -99 320 -321 0
-99 -101 320 -321 0
-320 321 0
99 -320 0
51 101 -320 0
51 321 673 0
321 -594 672 673 0
-321 -673 0
-51 -321 594 0
-51 -321 -672 0
115 322 -323 -592 0
322 323 -592 -696 0
-322 592 0
-322 323 696 0
-115 -322 -323 0
43 323 -698 0
-323 698 0
-43 -323 0
-52 324 -592 -763 0
-115 324 592 -763 0
-324 763 0
52 -324 -592 0
115 -324 592 0
-240 325 786 0
325 778 786 0
-325 -786 0
240 -325 -778 0
-214 326 327 334 -345 0
-326 345 0
-326 -334 0
214 -326 0
-326 -327 0
309 327 328 0
-309 -327 0
-327 -328 0
200 328 -584 0
328 -329 584 0
-200 -328 -584 0
-328 329 584 0
54 329 -761 0
329 -330 761 0
-54 -329 -761 0
-329 330 761 0
165 330 -762 0
330 331 333 762 0
-165 -330 -762 0
-330 -333 762 0
-330 -331 762 0
331 -332 763 -764 0
331 620 763 764 0
-331 -763 0
-331 -620 764 0
-331 332 -764 0
-50 332 655 0
-332 -655 0
50 -332 0
-169 333 -763 0
-333 763 0
169 -333 0
304 334 335 0
57 304 334 340 0
-304 -334 0
-57 -334 -335 0
-334 -335 -340 0
197 335 336 0
-197 -335 0
-335 -336 0
336 -337 584 761 0
58 336 584 -761 0
-336 -584 0
-58 -336 -761 0
-336 337 761 0
156 337 -762 0
337 -338 762 0
-156 -337 -762 0
-337 338 762 0
129 338 -763 0
338 -339 763 0
-129 -338 -763 0
-338 339 763 0
57 339 -764 0
339 -622 764 0
-57 -339 -764 0
-339 622 764 0
340 341 584 0
-262 340 341 749 0
-340 -341 0
262 -340 -584 0
-340 -584 -749 0
341 -342 584 761 0
59 341 584 -761 0
-341 -584 0
-59 -341 -761 0
-341 342 761 0
342 343 762 0
161 342 343 0
-342 -343 0
-161 -342 -762 0
343 -344 632 764 0
-99 343 -344 -764 0
-343 344 0
99 -343 -764 0
-343 -632 764 0
344 762 763 0
-344 -762 0
-344 -763 0
223 285 345 -346 -348 0
-223 -345 0
-345 348 0
-345 346 0
-285 -345 0
346 347 -773 0
346 347 774 0
-346 -347 0
-346 773 -774 0
-290 347 766 0
-347 -766 0
290 -347 0
277 -293 348 349 -583 0
293 -348 0
-348 -349 0
-348 583 0
-277 -348 0
349 774 -783 0
-349 -774 0
-349 783 0
-206 350 -351 0
350 -351 413 -774 0
-350 351 0
206 -350 -413 0
206 -350 774 0
204 351 -353 0
351 -352 -353 0
351 -353 -774 0
-351 353 0
-204 -351 352 774 0
213 352 -583 0
213 352 -779 0
-213 -352 0
-352 583 779 0
204 353 -355 0
-213 353 -355 0
353 354 -355 0
-353 355 0
-204 213 -353 -354 0
354 -774 -775 780 0
-354 774 0
-354 775 0
-354 -780 0
327 355 -356 -409 -411 0
-327 -355 0
-355 411 0
-355 409 0
-355 356 0
356 357 -361 -407 0
356 -359 -361 -407 0
-356 407 0
-356 361 0
-356 -357 359 0
357 358 843 0
357 842 843 0
-357 -843 0
-357 -358 -842 0
254 358 581 0
253 254 358 0
-254 -358 0
-253 -358 -581 0
359 360 840 842 0
-243 359 360 840 0
-359 -840 0
-359 -360 0
243 -359 -842 0
-358 360 -841 0
-358 360 -816 0
358 -360 0
-360 816 841 0
-281 361 -363 -406 0
361 362 -363 -406 0
-361 406 0
-361 363 0
281 -361 -362 0
-280 362 581 0
-362 -581 0
280 -362 0
-270 363 -364 404 0
363 -364 404 405 0
-363 364 0
-363 -404 0
270 -363 -405 0
335 364 -365 -391 -396 0
-335 -364 0
-364 396 0
-364 391 0
-364 365 0
-283 365 -366 389 0
-283 365 -366 -387 0
283 -365 0
-365 366 0
-365 387 -389 0
-233 347 366 -367 -371 0
-366 371 0
233 -366 0
-366 367 0
-347 -366 0
-206 285 367 369 0
285 367 -368 369 0
-367 -369 0
-285 -367 0
206 -367 368 0
354 368 -774 0
368 -774 778 0
354 368 -778 -779 0
-368 774 778 0
-354 -368 -778 0
-368 774 779 0
369 370 778 0
369 370 779 0
-369 -370 0
-369 -778 -779 0
223 370 777 0
15 223 370 616 0
-223 -370 0
-15 -370 -777 0
-370 -616 -777 0
31 371 -372 -380 0
-223 371 -372 -380 0
-371 380 0
-371 372 0
-31 223 -371 0
-293 372 -373 -378 -379 0
-372 379 0
293 -372 0
-372 378 0
-372 373 0
373 -374 -375 -376 -377 0
-373 377 0
-373 374 0
-373 376 0
-373 375 0
374 -578 765 -773 -774 0
-374 774 0
-374 578 0
-374 773 0
-374 -765 0
375 795 818 0
375 580 582 0
375 582 818 0
375 580 795 0
-375 -582 -795 0
-375 -580 -818 0
376 -802 -817 818 -822 0
-376 822 0
-376 802 0
-376 817 0
-376 -818 0
377 -775 -793 795 -799 0
-377 799 0
-377 775 0
-377 793 0
-377 -795 0
378 -776 794 -818 0
378 -580 -776 794 0
-378 776 0
-378 -794 0
-378 580 818 0
379 -582 -836 0
379 -795 828 0
379 -582 828 0
379 -795 -836 0
-379 582 795 0
-379 -828 836 0
380 -382 -844 0
-57 380 -382 0
380 -381 -382 0
-380 382 0
57 -380 381 844 0
381 816 841 845 0
-381 -816 0
-381 -845 0
-381 -841 0
382 383 -385 -796 0
382 383 -384 -385 0
-382 385 0
-382 -383 0
-382 384 796 0
-57 383 -816 0
383 816 827 0
-383 816 -827 0
57 -383 -816 0
384 583 766 0
-384 -583 0
-384 -766 0
385 -386 -819 0
385 -386 581 805 0
-385 386 0
-385 -805 819 0
-385 -581 819 0
386 -834 835 -839 -844 0
-386 844 0
-386 834 0
-386 839 0
-386 -835 0
387 388 770 0
223 387 -388 639 0
-387 388 -770 0
-223 -387 -388 0
-387 -388 -639 0
388 581 583 0
-388 -581 0
-388 -583 0
-287 389 390 0
389 -390 -772 0
287 -389 390 0
-389 -390 772 0
-388 390 771 0
-390 -771 0
388 -390 0
-304 -346 391 -392 0
304 -391 0
346 -391 0
-391 392 0
-289 392 -393 0
392 -394 -796 0
392 -393 -796 0
-289 392 -394 0
-392 393 394 0
289 -392 796 0
290 -388 393 0
-290 -393 0
388 -393 0
394 395 -828 -836 -847 0
-394 847 0
-394 -395 0
-394 828 0
-394 836 0
395 581 805 0
-395 -581 0
-395 -805 0
396 397 398 -403 0
396 398 -403 -825 0
-396 403 0
-396 -398 0
-396 -397 825 0
57 253 397 0
57 397 -826 0
-57 -397 0
-253 -397 826 0
-290 398 -584 757 0
-290 398 -399 584 0
290 -398 0
-398 399 584 0
-398 -584 -757 0
399 740 -761 0
399 -400 761 0
-399 -740 -761 0
-399 400 761 0
400 724 -762 0
400 -401 762 0
-400 -724 -762 0
-400 401 762 0
401 701 -763 0
401 -402 763 0
-401 -701 -763 0
-401 402 763 0
402 644 764 0
402 676 -764 0
-402 -676 -764 0
-402 -644 764 0
279 -393 403 0
279 288 403 -819 0
-279 -403 0
-288 393 -403 0
393 -403 819 0
279 404 825 0
-397 404 825 0
-404 -825 0
-279 397 -404 0
223 405 -604 0
-405 604 0
-223 -405 0
269 -276 406 0
-276 405 406 0
276 -406 0
-269 -405 -406 0
242 359 407 0
-362 407 -408 0
242 407 -408 0
359 -362 407 0
-242 362 -407 0
-359 -407 408 0
358 408 824 0
408 816 824 0
-408 -824 0
-358 -408 -816 0
277 409 410 -825 0
277 -383 409 410 0
-409 -410 0
-277 -409 0
383 -409 825 0
242 -408 410 0
-242 -410 0
408 -410 0
388 411 -412 0
267 411 -412 0
405 411 -412 0
-411 412 0
-267 -388 -405 -411 0
-275 281 412 0
-275 328 412 583 0
275 -412 0
-281 -328 -412 0
-281 -412 -583 0
-207 413 -414 0
11 207 413 0
-207 -413 414 0
-11 207 -413 0
-12 414 -763 0
414 -415 763 0
-414 415 763 0
12 -414 -763 0
-14 415 764 0
13 415 -764 0
-13 -415 -764 0
14 -415 764 0
212 354 416 0
-212 416 417 0
203 212 416 0
-212 -416 -417 0
-203 212 -354 -416 0
359 417 -418 562 -565 0
-359 417 -418 -562 -565 0
-417 565 0
-359 -417 562 0
-417 418 0
359 -417 -562 0
266 418 -419 -421 982 0
-266 418 -419 -421 -982 0
-418 421 0
266 -418 -982 0
-418 419 0
-266 -418 982 0
243 -358 419 420 -986 0
-243 358 419 -420 986 0
243 358 419 -420 -986 0
-243 -358 419 420 986 0
-243 -419 -986 0
243 -419 986 0
358 -419 420 0
-358 -419 -420 0
420 965 985 0
-420 -965 0
-420 -985 0
357 421 422 -438 -557 0
-357 -421 0
-421 557 0
-421 438 0
-421 -422 0
422 -423 -980 0
422 423 -437 0
422 423 -431 0
-422 -423 980 0
-422 423 431 437 0
423 -424 -425 0
-423 424 0
-423 425 0
424 859 861 0
-424 -859 0
-424 -861 0
425 426 880 0
-425 -880 0
-425 -426 0
426 427 -930 0
-426 930 0
-426 -427 0
427 428 933 0
427 428 934 0
-427 -428 0
-427 -933 -934 0
428 429 -430 880 930 0
-428 430 0
-428 -429 0
-428 -880 0
-428 -930 0
429 881 890 -937 0
-429 937 0
-429 -890 0
-429 -881 0
430 -931 933 934 0
-430 931 0
-430 -934 0
-430 -933 0
431 -432 -859 0
-431 859 0
-431 432 0
432 -433 436 0
432 -436 -954 0
-432 433 436 0
-432 -436 954 0
433 -434 861 0
425 433 -434 0
-425 433 -861 -929 0
425 -433 434 0
-433 434 861 0
-425 -433 -861 929 0
434 -879 -900 0
434 -435 -900 -901 0
-434 900 0
-434 879 901 0
-434 435 879 0
435 -872 -873 0
-435 872 0
-435 873 0
426 436 861 880 0
-436 -861 0
-426 -436 0
-436 -880 0
-433 437 859 0
-437 -859 0
433 -437 0
-203 438 -439 -513 -518 0
-438 518 0
203 -438 0
-438 513 0
-438 439 0
439 -440 446 447 -448 0
439 -440 -446 -447 -448 0
-439 448 0
-439 -446 447 0
-439 440 0
-439 446 -447 0
233 440 0
440 441 604 852 0
-233 -440 -604 0
-233 -440 -441 0
-233 -440 -852 0
223 441 -443 625 0
223 441 -442 -443 0
-441 443 0
-223 -441 0
-441 442 -625 0
442 627 637 0
442 -603 627 0
-442 -627 0
-442 603 -637 0
443 444 445 626 0
443 -444 603 626 0
-443 -626 0
-443 444 -445 0
-443 -444 -603 0
444 -604 -638 0
-444 604 0
-444 638 0
445 -627 -637 0
-445 627 0
-445 637 0
-29 446 857 0
-446 -857 0
29 -446 0
447 987 988 0
447 934 -988 0
447 -934 988 0
-447 -934 -988 0
-447 934 -987 988 0
448 -449 -500 -512 782 0
448 -449 -500 512 -782 0
-448 449 0
-448 -512 -782 0
-448 500 0
-448 512 782 0
387 449 -450 -466 -489 0
-387 -449 0
-449 489 0
-449 466 0
-449 450 0
450 -451 -459 -463 -464 0
-450 464 0
-450 451 0
-450 463 0
-450 459 0
390 451 -452 456 -457 0
-451 452 0
-451 -456 0
-390 -451 0
-451 457 0
452 453 454 -455 0
452 454 -455 -883 0
-452 455 0
-452 -454 0
-452 -453 883 0
453 872 -880 0
-453 -872 0
-453 880 0
454 884 -885 -886 0
-454 886 0
-454 885 0
-454 -884 0
230 455 870 0
230 455 -869 0
230 455 871 0
-230 -455 0
-455 869 -870 -871 0
456 897 898 0
456 885 -898 0
-456 -897 898 0
-456 -885 -898 0
457 -458 -842 0
457 -458 -855 0
-420 457 -458 0
-457 458 0
420 -457 842 855 0
458 -884 888 0
458 -887 889 0
458 -884 -887 0
458 888 889 0
-458 884 -889 0
-458 887 -888 0
459 460 -461 772 908 0
459 460 -461 -772 -908 0
-459 -460 0
-459 772 -908 0
-459 461 0
-459 -772 908 0
460 872 881 0
460 -872 873 0
-460 -872 -873 0
-460 872 -881 0
461 462 -943 0
461 462 861 926 0
-461 -462 0
-461 -926 943 0
-461 -861 943 0
462 -859 968 0
462 -951 968 0
-462 -968 0
-462 859 951 0
463 876 902 0
463 876 -911 0
463 -902 -911 -926 0
-463 -902 911 0
-463 -876 902 0
-463 -876 926 0
464 465 880 0
464 465 -872 0
464 465 -879 0
-464 -465 0
-464 872 879 -880 0
-420 465 -855 0
-420 465 -842 0
420 -465 0
-465 842 855 0
466 -467 -478 -483 -486 0
-466 486 0
-466 467 0
-466 483 0
-466 478 0
467 -468 -474 -475 -476 0
-467 476 0
-467 468 0
-467 475 0
-467 474 0
468 -469 -470 -471 0
-468 469 0
-468 470 0
-468 471 0
469 -856 -889 0
469 622 986 0
469 622 -856 0
469 -889 986 0
-469 -622 889 0
-469 856 -986 0
470 780 -937 0
470 581 670 0
470 581 -937 0
470 670 780 0
-470 -581 -780 0
-470 -670 937 0
471 472 473 844 974 0
471 472 473 -844 -974 0
-471 -472 0
-471 -844 974 0
-471 -473 0
-471 844 -974 0
472 -856 986 0
-472 856 0
-472 -986 0
473 -690 957 0
-473 690 0
-473 -957 0
474 -690 -981 0
474 850 957 0
474 957 -981 0
474 -690 850 0
-474 -850 981 0
-474 690 -957 0
475 -670 -910 0
475 -862 937 0
475 -670 -862 0
475 -910 937 0
-475 670 -937 0
-475 862 910 0
476 -477 889 0
476 -477 -622 -923 0
-476 477 0
-476 -889 923 0
-476 622 -889 0
477 858 861 0
477 -859 967 0
477 858 -859 0
477 861 967 0
-477 -858 -967 0
-477 859 -861 0
478 -479 -480 -481 -482 0
-478 482 0
-478 479 0
-478 481 0
-478 480 0
479 854 859 -889 -909 0
-479 -854 0
-479 909 0
-479 889 0
-479 -859 0
480 780 -783 -787 -847 0
-480 -780 0
-480 847 0
-480 787 0
-480 783 0
481 -946 -966 967 -971 0
-481 971 0
-481 946 0
-481 966 0
-481 -967 0
482 910 -914 -941 942 0
-482 -910 0
-482 -942 0
-482 941 0
-482 914 0
483 484 -485 769 0
483 484 -485 -956 0
-483 485 0
-483 -484 0
-483 -769 956 0
484 858 967 0
-484 -858 0
-484 -967 0
485 910 981 0
485 -850 862 0
485 862 981 0
485 -850 910 0
-485 -862 -910 0
-485 850 -981 0
486 487 -488 -774 -775 0
-486 488 0
-486 774 0
-486 775 0
-486 -487 0
487 881 890 0
-487 -881 0
-487 -890 0
488 -770 -773 -776 794 0
-488 776 0
-488 -794 0
-488 770 0
-488 773 0
489 -490 -492 0
489 491 -492 -974 0
-489 492 0
-489 490 -491 0
-489 490 974 0
-456 490 -965 0
490 965 976 0
-490 965 -976 0
456 -490 -965 0
-57 491 -842 0
491 842 846 0
-491 842 -846 0
57 -491 -842 0
492 -493 499 876 0
492 -493 -497 499 0
-492 493 0
-492 -499 0
-492 497 -876 0
493 494 -495 0
493 494 864 0
-493 -494 0
-493 495 -864 0
-456 494 -940 0
494 940 950 0
-494 940 -950 0
456 -494 -940 0
495 -866 -867 0
495 866 868 0
495 496 -866 0
-495 866 -868 0
-495 -496 -866 867 0
496 -863 865 0
-496 863 0
-496 -865 0
497 -498 -877 0
497 -498 878 -896 0
-497 498 0
-497 877 -878 0
-497 877 896 0
498 -875 -895 0
498 874 -895 0
-498 895 0
-498 -874 875 0
-57 456 499 0
456 499 884 -899 0
-456 -499 0
57 -499 -884 0
57 -499 899 0
500 -501 -922 0
500 -501 506 0
500 -501 -507 0
-500 501 0
-500 -506 507 922 0
501 502 908 0
501 502 -907 0
501 502 906 0
-501 -502 0
-501 -906 907 -908 0
502 -503 -871 0
-502 871 0
-502 503 0
503 504 869 0
503 504 891 892 0
-503 -504 0
-503 -869 -892 0
-503 -869 -891 0
504 505 870 -891 -892 0
-504 -870 0
-504 -505 0
-504 892 0
-504 891 0
505 -893 -894 0
-505 893 0
-505 894 0
506 -898 917 0
506 898 916 0
-506 898 -916 0
-506 -898 -917 0
-506 507 -509 915 0
507 -508 -509 915 0
-507 -915 0
-507 509 0
506 -507 508 0
508 918 919 0
508 -898 919 0
508 886 898 -919 0
-508 -886 -919 0
-508 -898 -919 0
-508 898 -918 919 0
509 -511 887 0
509 -511 -898 0
509 510 -511 0
-509 511 0
-509 -510 -887 898 0
510 917 919 920 -921 0
-510 921 0
-510 -920 0
-510 -917 0
-510 -919 0
511 919 920 0
511 898 917 0
511 917 920 0
511 898 919 0
-511 -917 -919 0
-511 -898 -920 0
-427 512 930 0
-427 512 880 0
427 -512 0
-512 -880 -930 0
513 -516 -949 0
-494 513 514 0
513 514 -949 0
-494 513 -516 0
494 -513 949 0
-513 -514 516 0
514 -515 948 0
514 940 948 0
-514 -948 0
-514 515 -940 0
-506 515 861 0
-515 -861 0
506 -515 0
-515 516 -517 947 0
-515 516 940 947 0
515 -516 0
-516 -947 0
-516 517 -940 0
517 -861 940 0
-509 517 861 0
-517 -861 -940 0
509 -517 861 0
518 -519 -522 -550 908 0
518 519 -522 -550 -908 0
-518 550 0
-518 519 908 0
-518 522 0
-518 -519 -908 0
388 519 772 0
-388 519 520 521 0
-388 -519 -520 0
388 -519 -772 0
-388 -519 -521 0
-207 -224 520 -641 0
-207 224 520 -853 0
207 -520 0
-224 -520 641 0
224 -520 853 0
32 207 521 -641 0
-32 207 521 -853 0
-207 -521 0
32 -521 641 0
-32 -521 853 0
522 -523 -525 -526 -549 0
-522 549 0
-522 523 0
-522 526 0
-522 525 0
393 523 524 0
393 424 523 0
393 523 871 0
-393 -523 0
-424 -523 -524 -871 0
524 -861 938 0
-503 524 861 0
-524 -861 -938 0
503 -524 861 0
525 -861 887 0
-501 507 525 0
507 525 -861 0
-501 525 887 0
501 -525 861 0
-507 -525 -887 0
526 -527 -528 -529 -544 0
-526 544 0
-526 527 0
-526 529 0
-526 528 0
237 527 880 0
434 527 -983 0
527 880 -983 0
237 434 527 0
-434 -527 -880 0
-237 -527 983 0
490 528 -974 0
-491 -494 528 0
490 -494 528 0
-491 528 -974 0
-490 491 -528 0
494 -528 974 0
502 529 -530 -536 -540 0
-502 -529 0
-529 540 0
-529 536 0
-529 530 0
381 530 531 532 533 0
-381 530 531 -532 533 0
-530 -531 0
-381 -530 532 0
-530 -533 0
381 -530 -532 0
531 859 -861 951 0
531 859 -876 951 0
-531 -859 0
-531 -951 0
-531 861 876 0
532 940 964 975 0
-532 -940 0
-532 -975 0
-532 -964 0
533 535 951 0
533 -534 535 0
533 535 943 0
-533 -535 0
-533 534 -943 -951 0
534 861 926 0
-534 -861 0
-534 -926 0
535 861 876 0
-535 -861 0
-535 -876 0
-456 536 -537 0
536 -537 -923 -949 0
-536 537 0
456 -536 923 0
456 -536 949 0
537 538 -539 0
424 537 -539 0
-537 539 0
-424 -537 -538 0
538 -906 907 -908 0
-538 906 0
-538 -907 0
-538 908 0
539 860 -942 956 0
539 -769 -860 942 0
539 -769 860 -942 0
539 -860 942 956 0
-539 -860 -942 0
-539 860 942 0
-539 769 -956 0
-57 540 541 542 0
456 540 541 542 0
-540 -542 0
-540 -541 0
57 -456 -540 0
424 541 977 0
541 -876 968 0
424 541 968 0
541 -876 977 0
-541 -968 -977 0
-424 -541 876 0
542 -543 -880 -881 882 0
-542 543 0
-542 880 0
-542 881 0
-542 -882 0
543 -872 -879 0
-543 872 0
-543 879 0
233 544 -545 983 0
233 -237 544 -545 0
-544 545 0
-233 -544 0
237 -544 -983 0
545 546 547 0
-508 545 547 924 0
-545 -547 0
-545 -546 -924 0
508 -545 -546 0
456 546 923 0
-546 -923 0
-456 -546 0
456 547 -548 0
456 532 547 974 0
-456 -547 0
-547 548 -974 0
-532 -547 548 0
548 884 -899 0
-548 -884 0
-548 899 0
549 -581 922 0
-229 516 549 0
516 549 -581 0
-229 549 922 0
229 -549 581 0
-516 -549 -922 0
550 551 555 0
-514 550 -551 859 0
-550 551 -555 0
-550 -551 -859 0
514 -550 -551 0
551 553 965 972 0
551 -552 553 972 0
-551 -553 0
-551 -972 0
-551 552 -965 0
552 -859 965 0
-517 552 859 0
-552 -859 -965 0
517 -552 859 0
553 554 -940 0
553 554 -964 0
-553 -554 0
-553 940 964 0
-515 554 859 0
-554 -859 0
515 -554 0
555 556 973 0
555 965 973 0
-555 -973 0
-555 -556 -965 0
556 -859 -940 0
515 556 859 0
556 -859 -964 0
-515 -556 859 0
-556 -859 940 964 0
437 557 558 0
557 558 861 880 0
-557 -558 0
-437 -557 -880 0
-437 -557 -861 0
558 559 -861 0
-434 558 559 -880 0
-558 -559 0
434 -558 861 0
-558 861 880 0
-500 546 559 -560 561 0
500 -559 0
-559 -561 0
-559 560 0
-546 -559 0
-425 560 -861 929 0
425 434 560 -861 0
-560 861 0
-425 -560 -929 0
425 -434 -560 0
561 -876 926 0
-561 876 0
-561 -926 0
562 -563 564 984 0
-551 562 563 564 0
-562 -564 0
-562 -563 -984 0
551 -562 563 0
-420 -552 563 0
556 563 986 0
-420 563 986 0
-552 556 563 0
552 -563 -986 0
420 -556 -563 0
420 532 564 0
420 564 -986 0
-420 -564 0
-532 -564 986 0
565 -572 -576 0
565 566 -576 859 0
-565 576 0
-565 -566 572 0
-565 572 -859 0
566 567 571 0
433 566 567 -570 0
-566 -567 0
-433 -566 -571 0
-566 570 -571 0
567 861 955 961 0
567 568 -861 955 -961 0
-567 -861 961 0
-567 -568 -961 0
-567 -955 0
-567 861 -961 0
568 -569 -861 -958 0
568 -569 861 -959 0
-568 569 0
-568 -861 958 0
-568 861 959 0
569 908 -956 0
569 -956 -957 0
-569 956 0
-569 -908 957 0
-524 570 949 960 0
-516 -524 570 960 0
524 -570 0
-570 -960 0
516 -570 -949 0
-568 571 -861 -955 0
-571 861 0
-571 955 0
568 -571 0
432 -501 -513 572 -573 0
-432 -572 0
-572 573 0
513 -572 0
501 -572 0
573 574 575 -859 861 0
-573 -575 0
-573 -574 0
-573 859 0
-573 -861 0
574 -861 951 0
574 -876 951 0
-574 -951 0
-574 861 876 0
456 575 949 0
-575 -949 0
-456 -575 0
512 576 -577 0
-512 576 577 0
-512 -576 -577 0
512 -576 577 0
577 -581 -782 0
227 577 -782 0
227 577 581 583 0
-577 -581 782 0
-227 -577 581 0
-577 -583 782 0
1 2 0
-1 -2 0
989 0

